NAME : att48.22487.tour
COMMENT : Cost = 4324_22487
COMMENT : Found by LKH [Keld Helsgaun] Thu Nov 16 17:29:38 2017
TYPE : TOUR
DIMENSION : 57
TOUR_SECTION
1
8
49
34
29
26
4
2
41
22
50
40
51
16
52
45
54
3
5
42
35
10
48
14
53
38
31
44
18
7
28
6
37
19
27
17
43
30
36
46
55
15
33
20
47
21
32
24
39
25
13
23
11
56
12
57
9
-1
EOF
